set VV := 0 1 2 3 4 5 6 7 8 9 10 11 ;
set VS := 0 1 2 3 4 5 6 7 8 9 10 11 12 13 14 15 16 17 18 19 20 21 22 23 24 25 26 27 28 ;
param cv := 
0 18
1 25
2 16
3 13
4 10
5 18
6 18
7 22
8 16
9 22
10 14
11 20
;
param cs := 
0 30
1 38
2 35
3 39
4 35
5 28
6 25
7 30
8 24
9 29
10 32
11 22
12 37
13 40
14 39
15 24
16 30
17 28
18 22
19 30
20 29
21 21
22 38
23 38
24 35
25 38
26 40
27 30
28 27
;
param bv:	 0 1 2 3 4 5 6 7 8 9 10 11 := 
		0 0 0 0 0 0 0 0 0 0 0 25 0 
		1 0 0 0 19 0 0 0 0 0 0 0 0 
		2 0 0 0 0 0 0 0 0 17 0 0 0 
		3 0 0 0 0 0 0 15 0 0 0 0 0 
		4 0 0 0 0 0 0 0 0 0 0 18 0 
		5 0 0 0 0 0 0 0 25 0 0 0 0 
		6 0 0 0 0 0 0 0 19 0 0 21 0 
		7 0 0 0 0 0 0 0 0 0 23 0 0 
		8 0 0 0 0 0 0 0 0 0 0 0 19 
		9 0 0 0 0 0 0 0 0 0 0 0 0 
		10 0 0 0 0 0 0 0 0 0 0 0 16 
		11 0 0 0 0 0 0 0 0 0 0 0 0 
;
param bs:	 0 1 2 3 4 5 6 7 8 9 10 11 12 13 14 15 16 17 18 19 20 21 22 23 24 25 26 27 28 := 
		0 0 0 0 29 30 0 0 0 0 0 0 0 0 0 0 0 0 0 0 0 0 0 35 0 0 0 0 0 0 
		1 0 0 0 0 0 0 0 0 0 0 0 0 0 0 0 36 0 0 0 0 0 0 0 0 0 0 0 0 37 
		2 0 0 0 0 0 0 0 0 0 0 0 0 0 0 0 0 0 0 0 34 0 0 0 0 0 0 0 24 0 
		3 29 0 0 0 0 0 22 0 0 20 0 0 0 0 0 0 0 0 0 39 0 0 0 24 40 0 0 0 39 
		4 30 0 0 0 0 0 0 0 0 0 0 0 0 0 32 0 0 0 0 0 0 0 0 0 0 0 0 0 0 
		5 0 0 0 0 0 0 0 0 0 0 0 0 0 0 0 0 0 0 0 0 0 0 0 0 40 0 0 0 0 
		6 0 0 0 22 0 0 0 0 0 0 0 0 0 0 0 0 0 0 36 0 0 0 0 35 35 0 0 0 0 
		7 0 0 0 0 0 0 0 0 0 0 0 29 0 0 0 0 0 27 0 31 0 0 23 0 0 0 0 0 0 
		8 0 0 0 0 0 0 0 0 0 0 0 0 0 39 0 0 26 0 0 0 0 0 0 0 0 0 0 0 0 
		9 0 0 0 20 0 0 0 0 0 0 40 0 0 0 0 0 21 0 0 0 0 0 0 0 0 0 0 0 0 
		10 0 0 0 0 0 0 0 0 0 40 0 0 0 0 0 39 25 21 0 0 0 0 0 0 0 0 0 0 0 
		11 0 0 0 0 0 0 0 29 0 0 0 0 0 0 35 0 23 0 0 0 0 0 0 0 0 0 0 36 0 
		12 0 0 0 0 0 0 0 0 0 0 0 0 0 0 37 0 0 0 0 0 0 0 0 0 0 0 0 0 0 
		13 0 0 0 0 0 0 0 0 39 0 0 0 0 0 0 0 0 0 37 0 0 0 0 0 0 0 0 0 0 
		14 0 0 0 0 32 0 0 0 0 0 0 35 37 0 0 0 38 0 0 0 0 0 40 0 0 24 0 0 27 
		15 0 36 0 0 0 0 0 0 0 0 39 0 0 0 0 0 0 0 0 0 0 37 26 0 21 0 33 0 0 
		16 0 0 0 0 0 0 0 0 26 21 25 23 0 0 38 0 0 0 0 0 0 0 0 0 0 0 0 0 0 
		17 0 0 0 0 0 0 0 27 0 0 21 0 0 0 0 0 0 0 0 0 0 20 0 0 0 0 0 0 0 
		18 0 0 0 0 0 0 36 0 0 0 0 0 0 37 0 0 0 0 0 0 0 0 0 0 22 0 30 0 0 
		19 0 0 34 39 0 0 0 31 0 0 0 0 0 0 0 0 0 0 0 0 0 0 0 0 0 0 0 0 0 
		20 0 0 0 0 0 0 0 0 0 0 0 0 0 0 0 0 0 0 0 0 0 0 0 0 20 21 0 0 24 
		21 0 0 0 0 0 0 0 0 0 0 0 0 0 0 0 37 0 20 0 0 0 0 0 0 0 0 0 0 0 
		22 35 0 0 0 0 0 0 23 0 0 0 0 0 0 40 26 0 0 0 0 0 0 0 0 0 24 0 0 40 
		23 0 0 0 24 0 0 35 0 0 0 0 0 0 0 0 0 0 0 0 0 0 0 0 0 0 0 0 0 35 
		24 0 0 0 40 0 40 35 0 0 0 0 0 0 0 0 21 0 0 22 0 20 0 0 0 0 0 0 0 0 
		25 0 0 0 0 0 0 0 0 0 0 0 0 0 0 24 0 0 0 0 0 21 0 24 0 0 0 23 0 0 
		26 0 0 0 0 0 0 0 0 0 0 0 0 0 0 0 33 0 0 30 0 0 0 0 0 0 23 0 0 0 
		27 0 0 24 0 0 0 0 0 0 0 0 36 0 0 0 0 0 0 0 0 0 0 0 0 0 0 0 0 0 
		28 0 37 0 39 0 0 0 0 0 0 0 0 0 0 27 0 0 0 0 0 24 0 40 35 0 0 0 0 0 
;
